nvertices = 17;
owners    = [1,0,0,1,0,0,1,0,0,1,0,1,0,1,0,1,0];
colors    = [2,1,2,2,1,2,2,1,2,2,4,3,4,3,4,3,4];
nedges    = 36;
sources   = [1,1,2,3,3,3,4,4,4,5,6,6,6,7,7,7,8,9,9,9,10,11,12,12,12,13,13,14,14,14,15,15,16,16,16,17];
targets   = [2,3,3,1,4,12,3,5,6,6,4,7,14,6,8,9,9,7,10,16,9,12,11,13,3,12,14,13,15,6,14,16,15,17,9,16];
